%%%mzn-stat: initTime=0.012641011
%%%mzn-stat: objective=304
%%%mzn-stat: nodes=1941
%%%mzn-stat: restarts=0
%%%mzn-stat: peakDepth=424
%%%mzn-stat: solveTime=0.483091574
%%%mzn-stat: variables=1128
%%%mzn-stat: propagators=821
%%%mzn-stat: failures=1232
%%%mzn-stat: propagations=207416
%%%mzn-stat: nogoods=1232
%%%mzn-stat: AverageConflictSize=19.50974025974026
%%%mzn-stat: NumUnitNogoodsLearned=303
%%%mzn-stat: AverageLearnedNogoodLength=73.44318181818181
%%%mzn-stat: AverageBacktrackAmount=0
%%%mzn-stat: AverageLbd=32.13474025974026
%%%mzn-stat-end
maxleg = 304;
succ = array1d(1..50,[47, 1, 23, 49, 36, 48, 44, 14, 28, 37, 7, 3, 11, 33, 18, 25, 12, 38, 50, 8, 13, 32, 42, 27, 39, 16, 5, 17, 2, 9, 20, 41, 10, 15, 34, 29, 46, 24, 45, 30, 21, 35, 19, 40, 22, 26, 43, 4, 31, 6]);
% time elapsed: 7.19 s
----------
==========
% time elapsed: 7.19 s
%%%mzn-stat: initTime=0.012641011
%%%mzn-stat: objective=304
%%%mzn-stat: nodes=1941
%%%mzn-stat: restarts=0
%%%mzn-stat: peakDepth=424
%%%mzn-stat: solveTime=0.483099945
%%%mzn-stat: variables=1128
%%%mzn-stat: propagators=821
%%%mzn-stat: failures=1232
%%%mzn-stat: propagations=207416
%%%mzn-stat: nogoods=1232
%%%mzn-stat: AverageConflictSize=19.50974025974026
%%%mzn-stat: NumUnitNogoodsLearned=303
%%%mzn-stat: AverageLearnedNogoodLength=73.44318181818181
%%%mzn-stat: AverageBacktrackAmount=0
%%%mzn-stat: AverageLbd=32.13474025974026
%%%mzn-stat-end
